NAME: random-66-16296
TYPE: TSP
COMMENT: size=66 seed=16296
DIMENSION: 134
EDGE_WEIGHT_TYPE: EUC_2D
NODE_COORD_SECTION
+0 872 183
-0 872 183
+1 673 16
-1 422 774
+2 565 407
-2 137 632
+3 605 171
-3 615 631
+4 553 909
-4 184 569
+5 147 447
-5 605 658
+6 277 26
-6 98 856
+7 523 538
-7 114 756
+8 980 901
-8 995 212
+9 861 182
-9 981 425
+10 57 795
-10 256 884
+11 361 472
-11 917 137
+12 156 855
-12 266 393
+13 90 511
-13 190 729
+14 288 700
-14 928 346
+15 638 149
-15 293 998
+16 630 785
-16 153 502
+17 220 121
-17 335 803
+18 755 371
-18 136 448
+19 550 704
-19 177 527
+20 10 650
-20 258 603
+21 276 147
-21 21 397
+22 807 648
-22 48 231
+23 640 564
-23 688 994
+24 331 441
-24 612 81
+25 811 137
-25 856 906
+26 817 163
-26 220 426
+27 301 3
-27 768 858
+28 581 595
-28 206 721
+29 891 602
-29 566 77
+30 106 194
-30 768 471
+31 181 679
-31 347 757
+32 67 174
-32 94 665
+33 769 551
-33 343 270
+34 199 364
-34 120 683
+35 88 833
-35 334 14
+36 455 173
-36 223 349
+37 284 656
-37 745 694
+38 829 439
-38 690 670
+39 136 996
-39 770 654
+40 822 115
-40 80 56
+41 534 453
-41 470 666
+42 656 222
-42 257 120
+43 654 427
-43 598 49
+44 219 17
-44 394 219
+45 295 842
-45 758 790
+46 619 931
-46 938 243
+47 236 204
-47 311 13
+48 312 506
-48 901 860
+49 991 39
-49 111 959
+50 355 699
-50 486 425
+51 648 282
-51 557 967
+52 829 203
-52 182 164
+53 210 683
-53 197 142
+54 112 681
-54 967 783
+55 774 843
-55 670 582
+56 657 295
-56 344 218
+57 179 857
-57 942 319
+58 816 868
-58 794 610
+59 208 44
-59 313 882
+60 772 925
-60 234 961
+61 398 30
-61 289 527
+62 426 508
-62 1 790
+63 674 868
-63 649 175
+64 801 146
-64 608 534
+65 880 312
-65 284 123
+66 834 435
-66 836 47
PRECEDENCE_SECTION
+0 -0
+1 -1
+2 -2
+3 -3
+4 -4
+5 -5
+6 -6
+7 -7
+8 -8
+9 -9
+10 -10
+11 -11
+12 -12
+13 -13
+14 -14
+15 -15
+16 -16
+17 -17
+18 -18
+19 -19
+20 -20
+21 -21
+22 -22
+23 -23
+24 -24
+25 -25
+26 -26
+27 -27
+28 -28
+29 -29
+30 -30
+31 -31
+32 -32
+33 -33
+34 -34
+35 -35
+36 -36
+37 -37
+38 -38
+39 -39
+40 -40
+41 -41
+42 -42
+43 -43
+44 -44
+45 -45
+46 -46
+47 -47
+48 -48
+49 -49
+50 -50
+51 -51
+52 -52
+53 -53
+54 -54
+55 -55
+56 -56
+57 -57
+58 -58
+59 -59
+60 -60
+61 -61
+62 -62
+63 -63
+64 -64
+65 -65
+66 -66
EOF
